benchmarks/bfuzz0/2863711590302702119159427747288663715.smt2
(set-logic QF_FP)
(declare-const x0 (_ FloatingPoint 8 24))
(declare-const x1 (_ FloatingPoint 8 24))
(declare-const x2 (_ FloatingPoint 8 24))
(declare-const x3 (_ FloatingPoint 8 24))
(declare-const x4 (_ FloatingPoint 8 24))
(declare-const x5 (_ FloatingPoint 8 24))
(declare-const x6 (_ FloatingPoint 8 24))
(declare-const x7 (_ FloatingPoint 8 24))
(declare-const x8 (_ FloatingPoint 8 24))
(declare-const x9 (_ FloatingPoint 8 24))
(declare-const x10 (_ FloatingPoint 8 24))
(declare-const x11 (_ FloatingPoint 8 24))
(declare-const x12 (_ FloatingPoint 8 24))
(declare-const x13 (_ FloatingPoint 8 24))
(declare-const x14 (_ FloatingPoint 8 24))
(declare-const x15 (_ FloatingPoint 8 24))
(declare-const x16 (_ FloatingPoint 8 24))
(declare-const x17 (_ FloatingPoint 8 24))
(declare-const x18 (_ FloatingPoint 8 24))
(declare-const x19 (_ FloatingPoint 8 24))
(assert (fp.eq (fp.div RNE (fp.mul RNE (fp.neg (fp.mul RNE x1 x9)) (fp.mul RNE (fp.add RNE x3 x1) (fp.mul RNE x4 x13))) (fp.mul RNE (fp.neg (fp.neg x15)) (fp.sub RNE (fp.sub RNE x18 x4) (fp.sub RNE x11 x11)))) (fp.div RNE (fp.sub RNE (fp.sub RNE (fp.neg x3) (fp.add RNE x19 x7)) (fp.mul RNE (fp.mul RNE x0 x4) (fp.add RNE x5 x8))) (fp.mul RNE (fp.sub RNE (fp.div RNE x14 x17) (fp.add RNE x3 x16)) (fp.add RNE (fp.add RNE x8 x7) (fp.div RNE x19 x18))))))
(assert (fp.lt (fp.mul RNE (fp.sub RNE (fp.sub RNE (fp.neg x19) (fp.neg x3)) (fp.neg (fp.sub RNE x0 x19))) (fp.add RNE (fp.neg (fp.sub RNE x11 x1)) (fp.neg (fp.div RNE x10 x2)))) (fp.add RNE (fp.sub RNE (fp.add RNE (fp.sub RNE x17 x14) (fp.neg x17)) (fp.sub RNE (fp.sub RNE x17 x3) (fp.neg x14))) (fp.div RNE (fp.neg (fp.div RNE x7 x16)) (fp.div RNE (fp.sub RNE x2 x17) (fp.sub RNE x6 x1))))))
(assert (fp.gt (fp.div RNE (fp.add RNE (fp.add RNE (fp.sub RNE x2 x7) (fp.sub RNE x17 x11)) (fp.div RNE (fp.mul RNE x12 x0) (fp.mul RNE x6 x6))) (fp.neg (fp.sub RNE (fp.sub RNE x13 x6) (fp.add RNE x5 x1)))) (fp.mul RNE (fp.neg (fp.mul RNE (fp.mul RNE x11 x9) (fp.mul RNE x17 x18))) (fp.neg (fp.mul RNE (fp.sub RNE x19 x7) (fp.sub RNE x9 x14))))))
(assert (fp.lt (fp.mul RNE (fp.div RNE (fp.div RNE (fp.div RNE x4 x12) (fp.add RNE x11 x1)) (fp.mul RNE (fp.add RNE x6 x3) (fp.neg x16))) (fp.add RNE (fp.neg (fp.mul RNE x11 x5)) (fp.mul RNE (fp.div RNE x7 x12) (fp.sub RNE x7 x6)))) (fp.sub RNE (fp.neg (fp.neg (fp.div RNE x8 x11))) (fp.add RNE (fp.sub RNE (fp.sub RNE x15 x16) (fp.sub RNE x0 x16)) (fp.sub RNE (fp.mul RNE x7 x9) (fp.neg x16))))))
(assert (fp.geq (fp.add RNE (fp.sub RNE (fp.sub RNE (fp.sub RNE x6 x2) (fp.mul RNE x12 x18)) (fp.sub RNE (fp.sub RNE x7 x9) (fp.mul RNE x4 x4))) (fp.neg (fp.div RNE (fp.sub RNE x18 x7) (fp.neg x19)))) (fp.mul RNE (fp.neg (fp.sub RNE (fp.mul RNE x4 x15) (fp.mul RNE x2 x6))) (fp.neg (fp.add RNE (fp.sub RNE x13 x17) (fp.neg x19))))))
(assert (fp.leq (fp.add RNE (fp.mul RNE (fp.add RNE (fp.div RNE x16 x15) (fp.add RNE x9 x18)) (fp.add RNE (fp.div RNE x1 x11) (fp.div RNE x13 x3))) (fp.neg (fp.mul RNE (fp.add RNE x9 x19) (fp.sub RNE x17 x7)))) (fp.add RNE (fp.add RNE (fp.div RNE (fp.sub RNE x8 x9) (fp.mul RNE x17 x14)) (fp.sub RNE (fp.div RNE x11 x4) (fp.neg x16))) (fp.mul RNE (fp.add RNE (fp.sub RNE x14 x3) (fp.neg x18)) (fp.div RNE (fp.mul RNE x2 x2) (fp.div RNE x3 x10))))))
(assert (fp.leq (fp.add RNE (fp.mul RNE (fp.mul RNE (fp.sub RNE x1 x17) (fp.add RNE x0 x3)) (fp.mul RNE (fp.neg x0) (fp.add RNE x0 x12))) (fp.div RNE (fp.add RNE (fp.mul RNE x6 x13) (fp.neg x12)) (fp.div RNE (fp.mul RNE x3 x12) (fp.add RNE x12 x18)))) (fp.div RNE (fp.add RNE (fp.add RNE (fp.div RNE x9 x6) (fp.sub RNE x3 x7)) (fp.sub RNE (fp.add RNE x2 x1) (fp.sub RNE x13 x10))) (fp.div RNE (fp.add RNE (fp.div RNE x6 x6) (fp.div RNE x2 x18)) (fp.div RNE (fp.mul RNE x16 x11) (fp.neg x12))))))
(check-sat)
