db/data/2863711590302702119159427747288663715.z3.out
-------------------
2500.169792175
